p cnf 66 1410
c #### one port of a gate receives one connection
-1 -2 0
-1 -3 0
-4 -1 0
-3 -2 0
-4 -3 0
-5 -6 0
-5 -7 0
-5 -8 0
-9 -5 0
-7 -6 0
-9 -7 0
-9 -8 0
-10 -5 0
-8 -6 0
-10 -9 0
-8 -7 0
-10 -8 0
-11 -12 0
-11 -13 0
-11 -14 0
-11 -15 0
-16 -11 0
-13 -12 0
-16 -13 0
-16 -14 0
-16 -15 0
-17 -11 0
-14 -12 0
-17 -16 0
-14 -13 0
-17 -14 0
-17 -15 0
-18 -11 0
-15 -12 0
-18 -16 0
-15 -13 0
-18 -17 0
-15 -14 0
-18 -15 0
-19 -20 0
-19 -21 0
-19 -22 0
-19 -23 0
-19 -24 0
-25 -19 0
-21 -20 0
-25 -21 0
-25 -22 0
-25 -23 0
-25 -24 0
-26 -19 0
-22 -20 0
-26 -25 0
-22 -21 0
-26 -22 0
-26 -23 0
-26 -24 0
-27 -19 0
-23 -20 0
-27 -25 0
-23 -21 0
-27 -26 0
-23 -22 0
-27 -23 0
-27 -24 0
-28 -19 0
-24 -20 0
-28 -25 0
-24 -21 0
-28 -26 0
-24 -22 0
-28 -27 0
-24 -23 0
-28 -24 0
1 4 0
2 3 0
5 9 10 0
6 7 8 0
11 16 17 18 0
12 13 14 15 0
19 25 26 27 28 0
20 21 22 23 24 0
c #### one output of the circuit receives one connection
-29 -30 0
-31 -30 0
-31 -29 0
-32 -30 0
-32 -29 0
-32 -31 0
-33 -30 0
-33 -29 0
-33 -31 0
-33 -32 0
-34 -30 0
-34 -29 0
-34 -31 0
-34 -32 0
-34 -33 0
30 29 31 32 33 34 0
c #### input gate has input value
-35 0
36 0
-37 0
38 0
-39 0
-40 0
41 0
42 0
c #### internal gates produce calculated value
-4 -2 43 44 39 35 -45 0
-4 -2 43 44 39 -35 -45 0
-4 -2 43 44 -39 35 -45 0
-4 -2 43 44 -39 -35 45 0
-4 -2 43 -44 39 35 -45 0
-4 -2 43 -44 39 -35 45 0
-4 -2 43 -44 -39 35 45 0
-4 -2 43 -44 -39 -35 45 0
-4 -2 -43 44 39 35 45 0
-4 -2 -43 44 39 -35 -45 0
-4 -2 -43 44 -39 35 45 0
-4 -2 -43 44 -39 -35 -45 0
-4 -2 -43 -44 39 35 45 0
-4 -2 -43 -44 39 -35 -45 0
-4 -2 -43 -44 -39 35 45 0
-4 -2 -43 -44 -39 -35 -45 0
-4 -2 43 44 40 36 -46 0
-4 -2 43 44 40 -36 -46 0
-4 -2 43 44 -40 36 -46 0
-4 -2 43 44 -40 -36 46 0
-4 -2 43 -44 40 36 -46 0
-4 -2 43 -44 40 -36 46 0
-4 -2 43 -44 -40 36 46 0
-4 -2 43 -44 -40 -36 46 0
-4 -2 -43 44 40 36 46 0
-4 -2 -43 44 40 -36 -46 0
-4 -2 -43 44 -40 36 46 0
-4 -2 -43 44 -40 -36 -46 0
-4 -2 -43 -44 40 36 46 0
-4 -2 -43 -44 40 -36 -46 0
-4 -2 -43 -44 -40 36 46 0
-4 -2 -43 -44 -40 -36 -46 0
-4 -2 43 44 41 37 -47 0
-4 -2 43 44 41 -37 -47 0
-4 -2 43 44 -41 37 -47 0
-4 -2 43 44 -41 -37 47 0
-4 -2 43 -44 41 37 -47 0
-4 -2 43 -44 41 -37 47 0
-4 -2 43 -44 -41 37 47 0
-4 -2 43 -44 -41 -37 47 0
-4 -2 -43 44 41 37 47 0
-4 -2 -43 44 41 -37 -47 0
-4 -2 -43 44 -41 37 47 0
-4 -2 -43 44 -41 -37 -47 0
-4 -2 -43 -44 41 37 47 0
-4 -2 -43 -44 41 -37 -47 0
-4 -2 -43 -44 -41 37 47 0
-4 -2 -43 -44 -41 -37 -47 0
-4 -2 43 44 42 38 -48 0
-4 -2 43 44 42 -38 -48 0
-4 -2 43 44 -42 38 -48 0
-4 -2 43 44 -42 -38 48 0
-4 -2 43 -44 42 38 -48 0
-4 -2 43 -44 42 -38 48 0
-4 -2 43 -44 -42 38 48 0
-4 -2 43 -44 -42 -38 48 0
-4 -2 -43 44 42 38 48 0
-4 -2 -43 44 42 -38 -48 0
-4 -2 -43 44 -42 38 48 0
-4 -2 -43 44 -42 -38 -48 0
-4 -2 -43 -44 42 38 48 0
-4 -2 -43 -44 42 -38 -48 0
-4 -2 -43 -44 -42 38 48 0
-4 -2 -43 -44 -42 -38 -48 0
-9 -6 49 50 39 35 -51 0
-9 -6 49 50 39 -35 -51 0
-9 -6 49 50 -39 35 -51 0
-9 -6 49 50 -39 -35 51 0
-9 -6 49 -50 39 35 -51 0
-9 -6 49 -50 39 -35 51 0
-9 -6 49 -50 -39 35 51 0
-9 -6 49 -50 -39 -35 51 0
-9 -6 -49 50 39 35 51 0
-9 -6 -49 50 39 -35 -51 0
-9 -6 -49 50 -39 35 51 0
-9 -6 -49 50 -39 -35 -51 0
-9 -6 -49 -50 39 35 51 0
-9 -6 -49 -50 39 -35 -51 0
-9 -6 -49 -50 -39 35 51 0
-9 -6 -49 -50 -39 -35 -51 0
-9 -6 49 50 40 36 -52 0
-9 -6 49 50 40 -36 -52 0
-9 -6 49 50 -40 36 -52 0
-9 -6 49 50 -40 -36 52 0
-9 -6 49 -50 40 36 -52 0
-9 -6 49 -50 40 -36 52 0
-9 -6 49 -50 -40 36 52 0
-9 -6 49 -50 -40 -36 52 0
-9 -6 -49 50 40 36 52 0
-9 -6 -49 50 40 -36 -52 0
-9 -6 -49 50 -40 36 52 0
-9 -6 -49 50 -40 -36 -52 0
-9 -6 -49 -50 40 36 52 0
-9 -6 -49 -50 40 -36 -52 0
-9 -6 -49 -50 -40 36 52 0
-9 -6 -49 -50 -40 -36 -52 0
-9 -6 49 50 41 37 -53 0
-9 -6 49 50 41 -37 -53 0
-9 -6 49 50 -41 37 -53 0
-9 -6 49 50 -41 -37 53 0
-9 -6 49 -50 41 37 -53 0
-9 -6 49 -50 41 -37 53 0
-9 -6 49 -50 -41 37 53 0
-9 -6 49 -50 -41 -37 53 0
-9 -6 -49 50 41 37 53 0
-9 -6 -49 50 41 -37 -53 0
-9 -6 -49 50 -41 37 53 0
-9 -6 -49 50 -41 -37 -53 0
-9 -6 -49 -50 41 37 53 0
-9 -6 -49 -50 41 -37 -53 0
-9 -6 -49 -50 -41 37 53 0
-9 -6 -49 -50 -41 -37 -53 0
-9 -6 49 50 42 38 -54 0
-9 -6 49 50 42 -38 -54 0
-9 -6 49 50 -42 38 -54 0
-9 -6 49 50 -42 -38 54 0
-9 -6 49 -50 42 38 -54 0
-9 -6 49 -50 42 -38 54 0
-9 -6 49 -50 -42 38 54 0
-9 -6 49 -50 -42 -38 54 0
-9 -6 -49 50 42 38 54 0
-9 -6 -49 50 42 -38 -54 0
-9 -6 -49 50 -42 38 54 0
-9 -6 -49 50 -42 -38 -54 0
-9 -6 -49 -50 42 38 54 0
-9 -6 -49 -50 42 -38 -54 0
-9 -6 -49 -50 -42 38 54 0
-9 -6 -49 -50 -42 -38 -54 0
-10 -6 49 50 45 35 -51 0
-10 -6 49 50 45 -35 -51 0
-10 -6 49 50 -45 35 -51 0
-10 -6 49 50 -45 -35 51 0
-10 -6 49 -50 45 35 -51 0
-10 -6 49 -50 45 -35 51 0
-10 -6 49 -50 -45 35 51 0
-10 -6 49 -50 -45 -35 51 0
-10 -6 -49 50 45 35 51 0
-10 -6 -49 50 45 -35 -51 0
-10 -6 -49 50 -45 35 51 0
-10 -6 -49 50 -45 -35 -51 0
-10 -6 -49 -50 45 35 51 0
-10 -6 -49 -50 45 -35 -51 0
-10 -6 -49 -50 -45 35 51 0
-10 -6 -49 -50 -45 -35 -51 0
-10 -6 49 50 46 36 -52 0
-10 -6 49 50 46 -36 -52 0
-10 -6 49 50 -46 36 -52 0
-10 -6 49 50 -46 -36 52 0
-10 -6 49 -50 46 36 -52 0
-10 -6 49 -50 46 -36 52 0
-10 -6 49 -50 -46 36 52 0
-10 -6 49 -50 -46 -36 52 0
-10 -6 -49 50 46 36 52 0
-10 -6 -49 50 46 -36 -52 0
-10 -6 -49 50 -46 36 52 0
-10 -6 -49 50 -46 -36 -52 0
-10 -6 -49 -50 46 36 52 0
-10 -6 -49 -50 46 -36 -52 0
-10 -6 -49 -50 -46 36 52 0
-10 -6 -49 -50 -46 -36 -52 0
-10 -6 49 50 47 37 -53 0
-10 -6 49 50 47 -37 -53 0
-10 -6 49 50 -47 37 -53 0
-10 -6 49 50 -47 -37 53 0
-10 -6 49 -50 47 37 -53 0
-10 -6 49 -50 47 -37 53 0
-10 -6 49 -50 -47 37 53 0
-10 -6 49 -50 -47 -37 53 0
-10 -6 -49 50 47 37 53 0
-10 -6 -49 50 47 -37 -53 0
-10 -6 -49 50 -47 37 53 0
-10 -6 -49 50 -47 -37 -53 0
-10 -6 -49 -50 47 37 53 0
-10 -6 -49 -50 47 -37 -53 0
-10 -6 -49 -50 -47 37 53 0
-10 -6 -49 -50 -47 -37 -53 0
-10 -6 49 50 48 38 -54 0
-10 -6 49 50 48 -38 -54 0
-10 -6 49 50 -48 38 -54 0
-10 -6 49 50 -48 -38 54 0
-10 -6 49 -50 48 38 -54 0
-10 -6 49 -50 48 -38 54 0
-10 -6 49 -50 -48 38 54 0
-10 -6 49 -50 -48 -38 54 0
-10 -6 -49 50 48 38 54 0
-10 -6 -49 50 48 -38 -54 0
-10 -6 -49 50 -48 38 54 0
-10 -6 -49 50 -48 -38 -54 0
-10 -6 -49 -50 48 38 54 0
-10 -6 -49 -50 48 -38 -54 0
-10 -6 -49 -50 -48 38 54 0
-10 -6 -49 -50 -48 -38 -54 0
-10 -7 49 50 45 39 -51 0
-10 -7 49 50 45 -39 -51 0
-10 -7 49 50 -45 39 -51 0
-10 -7 49 50 -45 -39 51 0
-10 -7 49 -50 45 39 -51 0
-10 -7 49 -50 45 -39 51 0
-10 -7 49 -50 -45 39 51 0
-10 -7 49 -50 -45 -39 51 0
-10 -7 -49 50 45 39 51 0
-10 -7 -49 50 45 -39 -51 0
-10 -7 -49 50 -45 39 51 0
-10 -7 -49 50 -45 -39 -51 0
-10 -7 -49 -50 45 39 51 0
-10 -7 -49 -50 45 -39 -51 0
-10 -7 -49 -50 -45 39 51 0
-10 -7 -49 -50 -45 -39 -51 0
-10 -7 49 50 46 40 -52 0
-10 -7 49 50 46 -40 -52 0
-10 -7 49 50 -46 40 -52 0
-10 -7 49 50 -46 -40 52 0
-10 -7 49 -50 46 40 -52 0
-10 -7 49 -50 46 -40 52 0
-10 -7 49 -50 -46 40 52 0
-10 -7 49 -50 -46 -40 52 0
-10 -7 -49 50 46 40 52 0
-10 -7 -49 50 46 -40 -52 0
-10 -7 -49 50 -46 40 52 0
-10 -7 -49 50 -46 -40 -52 0
-10 -7 -49 -50 46 40 52 0
-10 -7 -49 -50 46 -40 -52 0
-10 -7 -49 -50 -46 40 52 0
-10 -7 -49 -50 -46 -40 -52 0
-10 -7 49 50 47 41 -53 0
-10 -7 49 50 47 -41 -53 0
-10 -7 49 50 -47 41 -53 0
-10 -7 49 50 -47 -41 53 0
-10 -7 49 -50 47 41 -53 0
-10 -7 49 -50 47 -41 53 0
-10 -7 49 -50 -47 41 53 0
-10 -7 49 -50 -47 -41 53 0
-10 -7 -49 50 47 41 53 0
-10 -7 -49 50 47 -41 -53 0
-10 -7 -49 50 -47 41 53 0
-10 -7 -49 50 -47 -41 -53 0
-10 -7 -49 -50 47 41 53 0
-10 -7 -49 -50 47 -41 -53 0
-10 -7 -49 -50 -47 41 53 0
-10 -7 -49 -50 -47 -41 -53 0
-10 -7 49 50 48 42 -54 0
-10 -7 49 50 48 -42 -54 0
-10 -7 49 50 -48 42 -54 0
-10 -7 49 50 -48 -42 54 0
-10 -7 49 -50 48 42 -54 0
-10 -7 49 -50 48 -42 54 0
-10 -7 49 -50 -48 42 54 0
-10 -7 49 -50 -48 -42 54 0
-10 -7 -49 50 48 42 54 0
-10 -7 -49 50 48 -42 -54 0
-10 -7 -49 50 -48 42 54 0
-10 -7 -49 50 -48 -42 -54 0
-10 -7 -49 -50 48 42 54 0
-10 -7 -49 -50 48 -42 -54 0
-10 -7 -49 -50 -48 42 54 0
-10 -7 -49 -50 -48 -42 -54 0
-16 -12 55 56 39 35 -57 0
-16 -12 55 56 39 -35 -57 0
-16 -12 55 56 -39 35 -57 0
-16 -12 55 56 -39 -35 57 0
-16 -12 55 -56 39 35 -57 0
-16 -12 55 -56 39 -35 57 0
-16 -12 55 -56 -39 35 57 0
-16 -12 55 -56 -39 -35 57 0
-16 -12 -55 56 39 35 57 0
-16 -12 -55 56 39 -35 -57 0
-16 -12 -55 56 -39 35 57 0
-16 -12 -55 56 -39 -35 -57 0
-16 -12 -55 -56 39 35 57 0
-16 -12 -55 -56 39 -35 -57 0
-16 -12 -55 -56 -39 35 57 0
-16 -12 -55 -56 -39 -35 -57 0
-16 -12 55 56 40 36 -58 0
-16 -12 55 56 40 -36 -58 0
-16 -12 55 56 -40 36 -58 0
-16 -12 55 56 -40 -36 58 0
-16 -12 55 -56 40 36 -58 0
-16 -12 55 -56 40 -36 58 0
-16 -12 55 -56 -40 36 58 0
-16 -12 55 -56 -40 -36 58 0
-16 -12 -55 56 40 36 58 0
-16 -12 -55 56 40 -36 -58 0
-16 -12 -55 56 -40 36 58 0
-16 -12 -55 56 -40 -36 -58 0
-16 -12 -55 -56 40 36 58 0
-16 -12 -55 -56 40 -36 -58 0
-16 -12 -55 -56 -40 36 58 0
-16 -12 -55 -56 -40 -36 -58 0
-16 -12 55 56 41 37 -59 0
-16 -12 55 56 41 -37 -59 0
-16 -12 55 56 -41 37 -59 0
-16 -12 55 56 -41 -37 59 0
-16 -12 55 -56 41 37 -59 0
-16 -12 55 -56 41 -37 59 0
-16 -12 55 -56 -41 37 59 0
-16 -12 55 -56 -41 -37 59 0
-16 -12 -55 56 41 37 59 0
-16 -12 -55 56 41 -37 -59 0
-16 -12 -55 56 -41 37 59 0
-16 -12 -55 56 -41 -37 -59 0
-16 -12 -55 -56 41 37 59 0
-16 -12 -55 -56 41 -37 -59 0
-16 -12 -55 -56 -41 37 59 0
-16 -12 -55 -56 -41 -37 -59 0
-16 -12 55 56 42 38 -60 0
-16 -12 55 56 42 -38 -60 0
-16 -12 55 56 -42 38 -60 0
-16 -12 55 56 -42 -38 60 0
-16 -12 55 -56 42 38 -60 0
-16 -12 55 -56 42 -38 60 0
-16 -12 55 -56 -42 38 60 0
-16 -12 55 -56 -42 -38 60 0
-16 -12 -55 56 42 38 60 0
-16 -12 -55 56 42 -38 -60 0
-16 -12 -55 56 -42 38 60 0
-16 -12 -55 56 -42 -38 -60 0
-16 -12 -55 -56 42 38 60 0
-16 -12 -55 -56 42 -38 -60 0
-16 -12 -55 -56 -42 38 60 0
-16 -12 -55 -56 -42 -38 -60 0
-17 -12 55 56 45 35 -57 0
-17 -12 55 56 45 -35 -57 0
-17 -12 55 56 -45 35 -57 0
-17 -12 55 56 -45 -35 57 0
-17 -12 55 -56 45 35 -57 0
-17 -12 55 -56 45 -35 57 0
-17 -12 55 -56 -45 35 57 0
-17 -12 55 -56 -45 -35 57 0
-17 -12 -55 56 45 35 57 0
-17 -12 -55 56 45 -35 -57 0
-17 -12 -55 56 -45 35 57 0
-17 -12 -55 56 -45 -35 -57 0
-17 -12 -55 -56 45 35 57 0
-17 -12 -55 -56 45 -35 -57 0
-17 -12 -55 -56 -45 35 57 0
-17 -12 -55 -56 -45 -35 -57 0
-17 -12 55 56 46 36 -58 0
-17 -12 55 56 46 -36 -58 0
-17 -12 55 56 -46 36 -58 0
-17 -12 55 56 -46 -36 58 0
-17 -12 55 -56 46 36 -58 0
-17 -12 55 -56 46 -36 58 0
-17 -12 55 -56 -46 36 58 0
-17 -12 55 -56 -46 -36 58 0
-17 -12 -55 56 46 36 58 0
-17 -12 -55 56 46 -36 -58 0
-17 -12 -55 56 -46 36 58 0
-17 -12 -55 56 -46 -36 -58 0
-17 -12 -55 -56 46 36 58 0
-17 -12 -55 -56 46 -36 -58 0
-17 -12 -55 -56 -46 36 58 0
-17 -12 -55 -56 -46 -36 -58 0
-17 -12 55 56 47 37 -59 0
-17 -12 55 56 47 -37 -59 0
-17 -12 55 56 -47 37 -59 0
-17 -12 55 56 -47 -37 59 0
-17 -12 55 -56 47 37 -59 0
-17 -12 55 -56 47 -37 59 0
-17 -12 55 -56 -47 37 59 0
-17 -12 55 -56 -47 -37 59 0
-17 -12 -55 56 47 37 59 0
-17 -12 -55 56 47 -37 -59 0
-17 -12 -55 56 -47 37 59 0
-17 -12 -55 56 -47 -37 -59 0
-17 -12 -55 -56 47 37 59 0
-17 -12 -55 -56 47 -37 -59 0
-17 -12 -55 -56 -47 37 59 0
-17 -12 -55 -56 -47 -37 -59 0
-17 -12 55 56 48 38 -60 0
-17 -12 55 56 48 -38 -60 0
-17 -12 55 56 -48 38 -60 0
-17 -12 55 56 -48 -38 60 0
-17 -12 55 -56 48 38 -60 0
-17 -12 55 -56 48 -38 60 0
-17 -12 55 -56 -48 38 60 0
-17 -12 55 -56 -48 -38 60 0
-17 -12 -55 56 48 38 60 0
-17 -12 -55 56 48 -38 -60 0
-17 -12 -55 56 -48 38 60 0
-17 -12 -55 56 -48 -38 -60 0
-17 -12 -55 -56 48 38 60 0
-17 -12 -55 -56 48 -38 -60 0
-17 -12 -55 -56 -48 38 60 0
-17 -12 -55 -56 -48 -38 -60 0
-17 -13 55 56 45 39 -57 0
-17 -13 55 56 45 -39 -57 0
-17 -13 55 56 -45 39 -57 0
-17 -13 55 56 -45 -39 57 0
-17 -13 55 -56 45 39 -57 0
-17 -13 55 -56 45 -39 57 0
-17 -13 55 -56 -45 39 57 0
-17 -13 55 -56 -45 -39 57 0
-17 -13 -55 56 45 39 57 0
-17 -13 -55 56 45 -39 -57 0
-17 -13 -55 56 -45 39 57 0
-17 -13 -55 56 -45 -39 -57 0
-17 -13 -55 -56 45 39 57 0
-17 -13 -55 -56 45 -39 -57 0
-17 -13 -55 -56 -45 39 57 0
-17 -13 -55 -56 -45 -39 -57 0
-17 -13 55 56 46 40 -58 0
-17 -13 55 56 46 -40 -58 0
-17 -13 55 56 -46 40 -58 0
-17 -13 55 56 -46 -40 58 0
-17 -13 55 -56 46 40 -58 0
-17 -13 55 -56 46 -40 58 0
-17 -13 55 -56 -46 40 58 0
-17 -13 55 -56 -46 -40 58 0
-17 -13 -55 56 46 40 58 0
-17 -13 -55 56 46 -40 -58 0
-17 -13 -55 56 -46 40 58 0
-17 -13 -55 56 -46 -40 -58 0
-17 -13 -55 -56 46 40 58 0
-17 -13 -55 -56 46 -40 -58 0
-17 -13 -55 -56 -46 40 58 0
-17 -13 -55 -56 -46 -40 -58 0
-17 -13 55 56 47 41 -59 0
-17 -13 55 56 47 -41 -59 0
-17 -13 55 56 -47 41 -59 0
-17 -13 55 56 -47 -41 59 0
-17 -13 55 -56 47 41 -59 0
-17 -13 55 -56 47 -41 59 0
-17 -13 55 -56 -47 41 59 0
-17 -13 55 -56 -47 -41 59 0
-17 -13 -55 56 47 41 59 0
-17 -13 -55 56 47 -41 -59 0
-17 -13 -55 56 -47 41 59 0
-17 -13 -55 56 -47 -41 -59 0
-17 -13 -55 -56 47 41 59 0
-17 -13 -55 -56 47 -41 -59 0
-17 -13 -55 -56 -47 41 59 0
-17 -13 -55 -56 -47 -41 -59 0
-17 -13 55 56 48 42 -60 0
-17 -13 55 56 48 -42 -60 0
-17 -13 55 56 -48 42 -60 0
-17 -13 55 56 -48 -42 60 0
-17 -13 55 -56 48 42 -60 0
-17 -13 55 -56 48 -42 60 0
-17 -13 55 -56 -48 42 60 0
-17 -13 55 -56 -48 -42 60 0
-17 -13 -55 56 48 42 60 0
-17 -13 -55 56 48 -42 -60 0
-17 -13 -55 56 -48 42 60 0
-17 -13 -55 56 -48 -42 -60 0
-17 -13 -55 -56 48 42 60 0
-17 -13 -55 -56 48 -42 -60 0
-17 -13 -55 -56 -48 42 60 0
-17 -13 -55 -56 -48 -42 -60 0
-18 -12 55 56 51 35 -57 0
-18 -12 55 56 51 -35 -57 0
-18 -12 55 56 -51 35 -57 0
-18 -12 55 56 -51 -35 57 0
-18 -12 55 -56 51 35 -57 0
-18 -12 55 -56 51 -35 57 0
-18 -12 55 -56 -51 35 57 0
-18 -12 55 -56 -51 -35 57 0
-18 -12 -55 56 51 35 57 0
-18 -12 -55 56 51 -35 -57 0
-18 -12 -55 56 -51 35 57 0
-18 -12 -55 56 -51 -35 -57 0
-18 -12 -55 -56 51 35 57 0
-18 -12 -55 -56 51 -35 -57 0
-18 -12 -55 -56 -51 35 57 0
-18 -12 -55 -56 -51 -35 -57 0
-18 -12 55 56 52 36 -58 0
-18 -12 55 56 52 -36 -58 0
-18 -12 55 56 -52 36 -58 0
-18 -12 55 56 -52 -36 58 0
-18 -12 55 -56 52 36 -58 0
-18 -12 55 -56 52 -36 58 0
-18 -12 55 -56 -52 36 58 0
-18 -12 55 -56 -52 -36 58 0
-18 -12 -55 56 52 36 58 0
-18 -12 -55 56 52 -36 -58 0
-18 -12 -55 56 -52 36 58 0
-18 -12 -55 56 -52 -36 -58 0
-18 -12 -55 -56 52 36 58 0
-18 -12 -55 -56 52 -36 -58 0
-18 -12 -55 -56 -52 36 58 0
-18 -12 -55 -56 -52 -36 -58 0
-18 -12 55 56 53 37 -59 0
-18 -12 55 56 53 -37 -59 0
-18 -12 55 56 -53 37 -59 0
-18 -12 55 56 -53 -37 59 0
-18 -12 55 -56 53 37 -59 0
-18 -12 55 -56 53 -37 59 0
-18 -12 55 -56 -53 37 59 0
-18 -12 55 -56 -53 -37 59 0
-18 -12 -55 56 53 37 59 0
-18 -12 -55 56 53 -37 -59 0
-18 -12 -55 56 -53 37 59 0
-18 -12 -55 56 -53 -37 -59 0
-18 -12 -55 -56 53 37 59 0
-18 -12 -55 -56 53 -37 -59 0
-18 -12 -55 -56 -53 37 59 0
-18 -12 -55 -56 -53 -37 -59 0
-18 -12 55 56 54 38 -60 0
-18 -12 55 56 54 -38 -60 0
-18 -12 55 56 -54 38 -60 0
-18 -12 55 56 -54 -38 60 0
-18 -12 55 -56 54 38 -60 0
-18 -12 55 -56 54 -38 60 0
-18 -12 55 -56 -54 38 60 0
-18 -12 55 -56 -54 -38 60 0
-18 -12 -55 56 54 38 60 0
-18 -12 -55 56 54 -38 -60 0
-18 -12 -55 56 -54 38 60 0
-18 -12 -55 56 -54 -38 -60 0
-18 -12 -55 -56 54 38 60 0
-18 -12 -55 -56 54 -38 -60 0
-18 -12 -55 -56 -54 38 60 0
-18 -12 -55 -56 -54 -38 -60 0
-18 -13 55 56 51 39 -57 0
-18 -13 55 56 51 -39 -57 0
-18 -13 55 56 -51 39 -57 0
-18 -13 55 56 -51 -39 57 0
-18 -13 55 -56 51 39 -57 0
-18 -13 55 -56 51 -39 57 0
-18 -13 55 -56 -51 39 57 0
-18 -13 55 -56 -51 -39 57 0
-18 -13 -55 56 51 39 57 0
-18 -13 -55 56 51 -39 -57 0
-18 -13 -55 56 -51 39 57 0
-18 -13 -55 56 -51 -39 -57 0
-18 -13 -55 -56 51 39 57 0
-18 -13 -55 -56 51 -39 -57 0
-18 -13 -55 -56 -51 39 57 0
-18 -13 -55 -56 -51 -39 -57 0
-18 -13 55 56 52 40 -58 0
-18 -13 55 56 52 -40 -58 0
-18 -13 55 56 -52 40 -58 0
-18 -13 55 56 -52 -40 58 0
-18 -13 55 -56 52 40 -58 0
-18 -13 55 -56 52 -40 58 0
-18 -13 55 -56 -52 40 58 0
-18 -13 55 -56 -52 -40 58 0
-18 -13 -55 56 52 40 58 0
-18 -13 -55 56 52 -40 -58 0
-18 -13 -55 56 -52 40 58 0
-18 -13 -55 56 -52 -40 -58 0
-18 -13 -55 -56 52 40 58 0
-18 -13 -55 -56 52 -40 -58 0
-18 -13 -55 -56 -52 40 58 0
-18 -13 -55 -56 -52 -40 -58 0
-18 -13 55 56 53 41 -59 0
-18 -13 55 56 53 -41 -59 0
-18 -13 55 56 -53 41 -59 0
-18 -13 55 56 -53 -41 59 0
-18 -13 55 -56 53 41 -59 0
-18 -13 55 -56 53 -41 59 0
-18 -13 55 -56 -53 41 59 0
-18 -13 55 -56 -53 -41 59 0
-18 -13 -55 56 53 41 59 0
-18 -13 -55 56 53 -41 -59 0
-18 -13 -55 56 -53 41 59 0
-18 -13 -55 56 -53 -41 -59 0
-18 -13 -55 -56 53 41 59 0
-18 -13 -55 -56 53 -41 -59 0
-18 -13 -55 -56 -53 41 59 0
-18 -13 -55 -56 -53 -41 -59 0
-18 -13 55 56 54 42 -60 0
-18 -13 55 56 54 -42 -60 0
-18 -13 55 56 -54 42 -60 0
-18 -13 55 56 -54 -42 60 0
-18 -13 55 -56 54 42 -60 0
-18 -13 55 -56 54 -42 60 0
-18 -13 55 -56 -54 42 60 0
-18 -13 55 -56 -54 -42 60 0
-18 -13 -55 56 54 42 60 0
-18 -13 -55 56 54 -42 -60 0
-18 -13 -55 56 -54 42 60 0
-18 -13 -55 56 -54 -42 -60 0
-18 -13 -55 -56 54 42 60 0
-18 -13 -55 -56 54 -42 -60 0
-18 -13 -55 -56 -54 42 60 0
-18 -13 -55 -56 -54 -42 -60 0
-18 -14 55 56 51 45 -57 0
-18 -14 55 56 51 -45 -57 0
-18 -14 55 56 -51 45 -57 0
-18 -14 55 56 -51 -45 57 0
-18 -14 55 -56 51 45 -57 0
-18 -14 55 -56 51 -45 57 0
-18 -14 55 -56 -51 45 57 0
-18 -14 55 -56 -51 -45 57 0
-18 -14 -55 56 51 45 57 0
-18 -14 -55 56 51 -45 -57 0
-18 -14 -55 56 -51 45 57 0
-18 -14 -55 56 -51 -45 -57 0
-18 -14 -55 -56 51 45 57 0
-18 -14 -55 -56 51 -45 -57 0
-18 -14 -55 -56 -51 45 57 0
-18 -14 -55 -56 -51 -45 -57 0
-18 -14 55 56 52 46 -58 0
-18 -14 55 56 52 -46 -58 0
-18 -14 55 56 -52 46 -58 0
-18 -14 55 56 -52 -46 58 0
-18 -14 55 -56 52 46 -58 0
-18 -14 55 -56 52 -46 58 0
-18 -14 55 -56 -52 46 58 0
-18 -14 55 -56 -52 -46 58 0
-18 -14 -55 56 52 46 58 0
-18 -14 -55 56 52 -46 -58 0
-18 -14 -55 56 -52 46 58 0
-18 -14 -55 56 -52 -46 -58 0
-18 -14 -55 -56 52 46 58 0
-18 -14 -55 -56 52 -46 -58 0
-18 -14 -55 -56 -52 46 58 0
-18 -14 -55 -56 -52 -46 -58 0
-18 -14 55 56 53 47 -59 0
-18 -14 55 56 53 -47 -59 0
-18 -14 55 56 -53 47 -59 0
-18 -14 55 56 -53 -47 59 0
-18 -14 55 -56 53 47 -59 0
-18 -14 55 -56 53 -47 59 0
-18 -14 55 -56 -53 47 59 0
-18 -14 55 -56 -53 -47 59 0
-18 -14 -55 56 53 47 59 0
-18 -14 -55 56 53 -47 -59 0
-18 -14 -55 56 -53 47 59 0
-18 -14 -55 56 -53 -47 -59 0
-18 -14 -55 -56 53 47 59 0
-18 -14 -55 -56 53 -47 -59 0
-18 -14 -55 -56 -53 47 59 0
-18 -14 -55 -56 -53 -47 -59 0
-18 -14 55 56 54 48 -60 0
-18 -14 55 56 54 -48 -60 0
-18 -14 55 56 -54 48 -60 0
-18 -14 55 56 -54 -48 60 0
-18 -14 55 -56 54 48 -60 0
-18 -14 55 -56 54 -48 60 0
-18 -14 55 -56 -54 48 60 0
-18 -14 55 -56 -54 -48 60 0
-18 -14 -55 56 54 48 60 0
-18 -14 -55 56 54 -48 -60 0
-18 -14 -55 56 -54 48 60 0
-18 -14 -55 56 -54 -48 -60 0
-18 -14 -55 -56 54 48 60 0
-18 -14 -55 -56 54 -48 -60 0
-18 -14 -55 -56 -54 48 60 0
-18 -14 -55 -56 -54 -48 -60 0
-25 -20 61 62 39 35 -63 0
-25 -20 61 62 39 -35 -63 0
-25 -20 61 62 -39 35 -63 0
-25 -20 61 62 -39 -35 63 0
-25 -20 61 -62 39 35 -63 0
-25 -20 61 -62 39 -35 63 0
-25 -20 61 -62 -39 35 63 0
-25 -20 61 -62 -39 -35 63 0
-25 -20 -61 62 39 35 63 0
-25 -20 -61 62 39 -35 -63 0
-25 -20 -61 62 -39 35 63 0
-25 -20 -61 62 -39 -35 -63 0
-25 -20 -61 -62 39 35 63 0
-25 -20 -61 -62 39 -35 -63 0
-25 -20 -61 -62 -39 35 63 0
-25 -20 -61 -62 -39 -35 -63 0
-25 -20 61 62 40 36 -64 0
-25 -20 61 62 40 -36 -64 0
-25 -20 61 62 -40 36 -64 0
-25 -20 61 62 -40 -36 64 0
-25 -20 61 -62 40 36 -64 0
-25 -20 61 -62 40 -36 64 0
-25 -20 61 -62 -40 36 64 0
-25 -20 61 -62 -40 -36 64 0
-25 -20 -61 62 40 36 64 0
-25 -20 -61 62 40 -36 -64 0
-25 -20 -61 62 -40 36 64 0
-25 -20 -61 62 -40 -36 -64 0
-25 -20 -61 -62 40 36 64 0
-25 -20 -61 -62 40 -36 -64 0
-25 -20 -61 -62 -40 36 64 0
-25 -20 -61 -62 -40 -36 -64 0
-25 -20 61 62 41 37 -65 0
-25 -20 61 62 41 -37 -65 0
-25 -20 61 62 -41 37 -65 0
-25 -20 61 62 -41 -37 65 0
-25 -20 61 -62 41 37 -65 0
-25 -20 61 -62 41 -37 65 0
-25 -20 61 -62 -41 37 65 0
-25 -20 61 -62 -41 -37 65 0
-25 -20 -61 62 41 37 65 0
-25 -20 -61 62 41 -37 -65 0
-25 -20 -61 62 -41 37 65 0
-25 -20 -61 62 -41 -37 -65 0
-25 -20 -61 -62 41 37 65 0
-25 -20 -61 -62 41 -37 -65 0
-25 -20 -61 -62 -41 37 65 0
-25 -20 -61 -62 -41 -37 -65 0
-25 -20 61 62 42 38 -66 0
-25 -20 61 62 42 -38 -66 0
-25 -20 61 62 -42 38 -66 0
-25 -20 61 62 -42 -38 66 0
-25 -20 61 -62 42 38 -66 0
-25 -20 61 -62 42 -38 66 0
-25 -20 61 -62 -42 38 66 0
-25 -20 61 -62 -42 -38 66 0
-25 -20 -61 62 42 38 66 0
-25 -20 -61 62 42 -38 -66 0
-25 -20 -61 62 -42 38 66 0
-25 -20 -61 62 -42 -38 -66 0
-25 -20 -61 -62 42 38 66 0
-25 -20 -61 -62 42 -38 -66 0
-25 -20 -61 -62 -42 38 66 0
-25 -20 -61 -62 -42 -38 -66 0
-26 -20 61 62 45 35 -63 0
-26 -20 61 62 45 -35 -63 0
-26 -20 61 62 -45 35 -63 0
-26 -20 61 62 -45 -35 63 0
-26 -20 61 -62 45 35 -63 0
-26 -20 61 -62 45 -35 63 0
-26 -20 61 -62 -45 35 63 0
-26 -20 61 -62 -45 -35 63 0
-26 -20 -61 62 45 35 63 0
-26 -20 -61 62 45 -35 -63 0
-26 -20 -61 62 -45 35 63 0
-26 -20 -61 62 -45 -35 -63 0
-26 -20 -61 -62 45 35 63 0
-26 -20 -61 -62 45 -35 -63 0
-26 -20 -61 -62 -45 35 63 0
-26 -20 -61 -62 -45 -35 -63 0
-26 -20 61 62 46 36 -64 0
-26 -20 61 62 46 -36 -64 0
-26 -20 61 62 -46 36 -64 0
-26 -20 61 62 -46 -36 64 0
-26 -20 61 -62 46 36 -64 0
-26 -20 61 -62 46 -36 64 0
-26 -20 61 -62 -46 36 64 0
-26 -20 61 -62 -46 -36 64 0
-26 -20 -61 62 46 36 64 0
-26 -20 -61 62 46 -36 -64 0
-26 -20 -61 62 -46 36 64 0
-26 -20 -61 62 -46 -36 -64 0
-26 -20 -61 -62 46 36 64 0
-26 -20 -61 -62 46 -36 -64 0
-26 -20 -61 -62 -46 36 64 0
-26 -20 -61 -62 -46 -36 -64 0
-26 -20 61 62 47 37 -65 0
-26 -20 61 62 47 -37 -65 0
-26 -20 61 62 -47 37 -65 0
-26 -20 61 62 -47 -37 65 0
-26 -20 61 -62 47 37 -65 0
-26 -20 61 -62 47 -37 65 0
-26 -20 61 -62 -47 37 65 0
-26 -20 61 -62 -47 -37 65 0
-26 -20 -61 62 47 37 65 0
-26 -20 -61 62 47 -37 -65 0
-26 -20 -61 62 -47 37 65 0
-26 -20 -61 62 -47 -37 -65 0
-26 -20 -61 -62 47 37 65 0
-26 -20 -61 -62 47 -37 -65 0
-26 -20 -61 -62 -47 37 65 0
-26 -20 -61 -62 -47 -37 -65 0
-26 -20 61 62 48 38 -66 0
-26 -20 61 62 48 -38 -66 0
-26 -20 61 62 -48 38 -66 0
-26 -20 61 62 -48 -38 66 0
-26 -20 61 -62 48 38 -66 0
-26 -20 61 -62 48 -38 66 0
-26 -20 61 -62 -48 38 66 0
-26 -20 61 -62 -48 -38 66 0
-26 -20 -61 62 48 38 66 0
-26 -20 -61 62 48 -38 -66 0
-26 -20 -61 62 -48 38 66 0
-26 -20 -61 62 -48 -38 -66 0
-26 -20 -61 -62 48 38 66 0
-26 -20 -61 -62 48 -38 -66 0
-26 -20 -61 -62 -48 38 66 0
-26 -20 -61 -62 -48 -38 -66 0
-26 -21 61 62 45 39 -63 0
-26 -21 61 62 45 -39 -63 0
-26 -21 61 62 -45 39 -63 0
-26 -21 61 62 -45 -39 63 0
-26 -21 61 -62 45 39 -63 0
-26 -21 61 -62 45 -39 63 0
-26 -21 61 -62 -45 39 63 0
-26 -21 61 -62 -45 -39 63 0
-26 -21 -61 62 45 39 63 0
-26 -21 -61 62 45 -39 -63 0
-26 -21 -61 62 -45 39 63 0
-26 -21 -61 62 -45 -39 -63 0
-26 -21 -61 -62 45 39 63 0
-26 -21 -61 -62 45 -39 -63 0
-26 -21 -61 -62 -45 39 63 0
-26 -21 -61 -62 -45 -39 -63 0
-26 -21 61 62 46 40 -64 0
-26 -21 61 62 46 -40 -64 0
-26 -21 61 62 -46 40 -64 0
-26 -21 61 62 -46 -40 64 0
-26 -21 61 -62 46 40 -64 0
-26 -21 61 -62 46 -40 64 0
-26 -21 61 -62 -46 40 64 0
-26 -21 61 -62 -46 -40 64 0
-26 -21 -61 62 46 40 64 0
-26 -21 -61 62 46 -40 -64 0
-26 -21 -61 62 -46 40 64 0
-26 -21 -61 62 -46 -40 -64 0
-26 -21 -61 -62 46 40 64 0
-26 -21 -61 -62 46 -40 -64 0
-26 -21 -61 -62 -46 40 64 0
-26 -21 -61 -62 -46 -40 -64 0
-26 -21 61 62 47 41 -65 0
-26 -21 61 62 47 -41 -65 0
-26 -21 61 62 -47 41 -65 0
-26 -21 61 62 -47 -41 65 0
-26 -21 61 -62 47 41 -65 0
-26 -21 61 -62 47 -41 65 0
-26 -21 61 -62 -47 41 65 0
-26 -21 61 -62 -47 -41 65 0
-26 -21 -61 62 47 41 65 0
-26 -21 -61 62 47 -41 -65 0
-26 -21 -61 62 -47 41 65 0
-26 -21 -61 62 -47 -41 -65 0
-26 -21 -61 -62 47 41 65 0
-26 -21 -61 -62 47 -41 -65 0
-26 -21 -61 -62 -47 41 65 0
-26 -21 -61 -62 -47 -41 -65 0
-26 -21 61 62 48 42 -66 0
-26 -21 61 62 48 -42 -66 0
-26 -21 61 62 -48 42 -66 0
-26 -21 61 62 -48 -42 66 0
-26 -21 61 -62 48 42 -66 0
-26 -21 61 -62 48 -42 66 0
-26 -21 61 -62 -48 42 66 0
-26 -21 61 -62 -48 -42 66 0
-26 -21 -61 62 48 42 66 0
-26 -21 -61 62 48 -42 -66 0
-26 -21 -61 62 -48 42 66 0
-26 -21 -61 62 -48 -42 -66 0
-26 -21 -61 -62 48 42 66 0
-26 -21 -61 -62 48 -42 -66 0
-26 -21 -61 -62 -48 42 66 0
-26 -21 -61 -62 -48 -42 -66 0
-27 -20 61 62 51 35 -63 0
-27 -20 61 62 51 -35 -63 0
-27 -20 61 62 -51 35 -63 0
-27 -20 61 62 -51 -35 63 0
-27 -20 61 -62 51 35 -63 0
-27 -20 61 -62 51 -35 63 0
-27 -20 61 -62 -51 35 63 0
-27 -20 61 -62 -51 -35 63 0
-27 -20 -61 62 51 35 63 0
-27 -20 -61 62 51 -35 -63 0
-27 -20 -61 62 -51 35 63 0
-27 -20 -61 62 -51 -35 -63 0
-27 -20 -61 -62 51 35 63 0
-27 -20 -61 -62 51 -35 -63 0
-27 -20 -61 -62 -51 35 63 0
-27 -20 -61 -62 -51 -35 -63 0
-27 -20 61 62 52 36 -64 0
-27 -20 61 62 52 -36 -64 0
-27 -20 61 62 -52 36 -64 0
-27 -20 61 62 -52 -36 64 0
-27 -20 61 -62 52 36 -64 0
-27 -20 61 -62 52 -36 64 0
-27 -20 61 -62 -52 36 64 0
-27 -20 61 -62 -52 -36 64 0
-27 -20 -61 62 52 36 64 0
-27 -20 -61 62 52 -36 -64 0
-27 -20 -61 62 -52 36 64 0
-27 -20 -61 62 -52 -36 -64 0
-27 -20 -61 -62 52 36 64 0
-27 -20 -61 -62 52 -36 -64 0
-27 -20 -61 -62 -52 36 64 0
-27 -20 -61 -62 -52 -36 -64 0
-27 -20 61 62 53 37 -65 0
-27 -20 61 62 53 -37 -65 0
-27 -20 61 62 -53 37 -65 0
-27 -20 61 62 -53 -37 65 0
-27 -20 61 -62 53 37 -65 0
-27 -20 61 -62 53 -37 65 0
-27 -20 61 -62 -53 37 65 0
-27 -20 61 -62 -53 -37 65 0
-27 -20 -61 62 53 37 65 0
-27 -20 -61 62 53 -37 -65 0
-27 -20 -61 62 -53 37 65 0
-27 -20 -61 62 -53 -37 -65 0
-27 -20 -61 -62 53 37 65 0
-27 -20 -61 -62 53 -37 -65 0
-27 -20 -61 -62 -53 37 65 0
-27 -20 -61 -62 -53 -37 -65 0
-27 -20 61 62 54 38 -66 0
-27 -20 61 62 54 -38 -66 0
-27 -20 61 62 -54 38 -66 0
-27 -20 61 62 -54 -38 66 0
-27 -20 61 -62 54 38 -66 0
-27 -20 61 -62 54 -38 66 0
-27 -20 61 -62 -54 38 66 0
-27 -20 61 -62 -54 -38 66 0
-27 -20 -61 62 54 38 66 0
-27 -20 -61 62 54 -38 -66 0
-27 -20 -61 62 -54 38 66 0
-27 -20 -61 62 -54 -38 -66 0
-27 -20 -61 -62 54 38 66 0
-27 -20 -61 -62 54 -38 -66 0
-27 -20 -61 -62 -54 38 66 0
-27 -20 -61 -62 -54 -38 -66 0
-27 -21 61 62 51 39 -63 0
-27 -21 61 62 51 -39 -63 0
-27 -21 61 62 -51 39 -63 0
-27 -21 61 62 -51 -39 63 0
-27 -21 61 -62 51 39 -63 0
-27 -21 61 -62 51 -39 63 0
-27 -21 61 -62 -51 39 63 0
-27 -21 61 -62 -51 -39 63 0
-27 -21 -61 62 51 39 63 0
-27 -21 -61 62 51 -39 -63 0
-27 -21 -61 62 -51 39 63 0
-27 -21 -61 62 -51 -39 -63 0
-27 -21 -61 -62 51 39 63 0
-27 -21 -61 -62 51 -39 -63 0
-27 -21 -61 -62 -51 39 63 0
-27 -21 -61 -62 -51 -39 -63 0
-27 -21 61 62 52 40 -64 0
-27 -21 61 62 52 -40 -64 0
-27 -21 61 62 -52 40 -64 0
-27 -21 61 62 -52 -40 64 0
-27 -21 61 -62 52 40 -64 0
-27 -21 61 -62 52 -40 64 0
-27 -21 61 -62 -52 40 64 0
-27 -21 61 -62 -52 -40 64 0
-27 -21 -61 62 52 40 64 0
-27 -21 -61 62 52 -40 -64 0
-27 -21 -61 62 -52 40 64 0
-27 -21 -61 62 -52 -40 -64 0
-27 -21 -61 -62 52 40 64 0
-27 -21 -61 -62 52 -40 -64 0
-27 -21 -61 -62 -52 40 64 0
-27 -21 -61 -62 -52 -40 -64 0
-27 -21 61 62 53 41 -65 0
-27 -21 61 62 53 -41 -65 0
-27 -21 61 62 -53 41 -65 0
-27 -21 61 62 -53 -41 65 0
-27 -21 61 -62 53 41 -65 0
-27 -21 61 -62 53 -41 65 0
-27 -21 61 -62 -53 41 65 0
-27 -21 61 -62 -53 -41 65 0
-27 -21 -61 62 53 41 65 0
-27 -21 -61 62 53 -41 -65 0
-27 -21 -61 62 -53 41 65 0
-27 -21 -61 62 -53 -41 -65 0
-27 -21 -61 -62 53 41 65 0
-27 -21 -61 -62 53 -41 -65 0
-27 -21 -61 -62 -53 41 65 0
-27 -21 -61 -62 -53 -41 -65 0
-27 -21 61 62 54 42 -66 0
-27 -21 61 62 54 -42 -66 0
-27 -21 61 62 -54 42 -66 0
-27 -21 61 62 -54 -42 66 0
-27 -21 61 -62 54 42 -66 0
-27 -21 61 -62 54 -42 66 0
-27 -21 61 -62 -54 42 66 0
-27 -21 61 -62 -54 -42 66 0
-27 -21 -61 62 54 42 66 0
-27 -21 -61 62 54 -42 -66 0
-27 -21 -61 62 -54 42 66 0
-27 -21 -61 62 -54 -42 -66 0
-27 -21 -61 -62 54 42 66 0
-27 -21 -61 -62 54 -42 -66 0
-27 -21 -61 -62 -54 42 66 0
-27 -21 -61 -62 -54 -42 -66 0
-27 -22 61 62 51 45 -63 0
-27 -22 61 62 51 -45 -63 0
-27 -22 61 62 -51 45 -63 0
-27 -22 61 62 -51 -45 63 0
-27 -22 61 -62 51 45 -63 0
-27 -22 61 -62 51 -45 63 0
-27 -22 61 -62 -51 45 63 0
-27 -22 61 -62 -51 -45 63 0
-27 -22 -61 62 51 45 63 0
-27 -22 -61 62 51 -45 -63 0
-27 -22 -61 62 -51 45 63 0
-27 -22 -61 62 -51 -45 -63 0
-27 -22 -61 -62 51 45 63 0
-27 -22 -61 -62 51 -45 -63 0
-27 -22 -61 -62 -51 45 63 0
-27 -22 -61 -62 -51 -45 -63 0
-27 -22 61 62 52 46 -64 0
-27 -22 61 62 52 -46 -64 0
-27 -22 61 62 -52 46 -64 0
-27 -22 61 62 -52 -46 64 0
-27 -22 61 -62 52 46 -64 0
-27 -22 61 -62 52 -46 64 0
-27 -22 61 -62 -52 46 64 0
-27 -22 61 -62 -52 -46 64 0
-27 -22 -61 62 52 46 64 0
-27 -22 -61 62 52 -46 -64 0
-27 -22 -61 62 -52 46 64 0
-27 -22 -61 62 -52 -46 -64 0
-27 -22 -61 -62 52 46 64 0
-27 -22 -61 -62 52 -46 -64 0
-27 -22 -61 -62 -52 46 64 0
-27 -22 -61 -62 -52 -46 -64 0
-27 -22 61 62 53 47 -65 0
-27 -22 61 62 53 -47 -65 0
-27 -22 61 62 -53 47 -65 0
-27 -22 61 62 -53 -47 65 0
-27 -22 61 -62 53 47 -65 0
-27 -22 61 -62 53 -47 65 0
-27 -22 61 -62 -53 47 65 0
-27 -22 61 -62 -53 -47 65 0
-27 -22 -61 62 53 47 65 0
-27 -22 -61 62 53 -47 -65 0
-27 -22 -61 62 -53 47 65 0
-27 -22 -61 62 -53 -47 -65 0
-27 -22 -61 -62 53 47 65 0
-27 -22 -61 -62 53 -47 -65 0
-27 -22 -61 -62 -53 47 65 0
-27 -22 -61 -62 -53 -47 -65 0
-27 -22 61 62 54 48 -66 0
-27 -22 61 62 54 -48 -66 0
-27 -22 61 62 -54 48 -66 0
-27 -22 61 62 -54 -48 66 0
-27 -22 61 -62 54 48 -66 0
-27 -22 61 -62 54 -48 66 0
-27 -22 61 -62 -54 48 66 0
-27 -22 61 -62 -54 -48 66 0
-27 -22 -61 62 54 48 66 0
-27 -22 -61 62 54 -48 -66 0
-27 -22 -61 62 -54 48 66 0
-27 -22 -61 62 -54 -48 -66 0
-27 -22 -61 -62 54 48 66 0
-27 -22 -61 -62 54 -48 -66 0
-27 -22 -61 -62 -54 48 66 0
-27 -22 -61 -62 -54 -48 -66 0
-28 -20 61 62 57 35 -63 0
-28 -20 61 62 57 -35 -63 0
-28 -20 61 62 -57 35 -63 0
-28 -20 61 62 -57 -35 63 0
-28 -20 61 -62 57 35 -63 0
-28 -20 61 -62 57 -35 63 0
-28 -20 61 -62 -57 35 63 0
-28 -20 61 -62 -57 -35 63 0
-28 -20 -61 62 57 35 63 0
-28 -20 -61 62 57 -35 -63 0
-28 -20 -61 62 -57 35 63 0
-28 -20 -61 62 -57 -35 -63 0
-28 -20 -61 -62 57 35 63 0
-28 -20 -61 -62 57 -35 -63 0
-28 -20 -61 -62 -57 35 63 0
-28 -20 -61 -62 -57 -35 -63 0
-28 -20 61 62 58 36 -64 0
-28 -20 61 62 58 -36 -64 0
-28 -20 61 62 -58 36 -64 0
-28 -20 61 62 -58 -36 64 0
-28 -20 61 -62 58 36 -64 0
-28 -20 61 -62 58 -36 64 0
-28 -20 61 -62 -58 36 64 0
-28 -20 61 -62 -58 -36 64 0
-28 -20 -61 62 58 36 64 0
-28 -20 -61 62 58 -36 -64 0
-28 -20 -61 62 -58 36 64 0
-28 -20 -61 62 -58 -36 -64 0
-28 -20 -61 -62 58 36 64 0
-28 -20 -61 -62 58 -36 -64 0
-28 -20 -61 -62 -58 36 64 0
-28 -20 -61 -62 -58 -36 -64 0
-28 -20 61 62 59 37 -65 0
-28 -20 61 62 59 -37 -65 0
-28 -20 61 62 -59 37 -65 0
-28 -20 61 62 -59 -37 65 0
-28 -20 61 -62 59 37 -65 0
-28 -20 61 -62 59 -37 65 0
-28 -20 61 -62 -59 37 65 0
-28 -20 61 -62 -59 -37 65 0
-28 -20 -61 62 59 37 65 0
-28 -20 -61 62 59 -37 -65 0
-28 -20 -61 62 -59 37 65 0
-28 -20 -61 62 -59 -37 -65 0
-28 -20 -61 -62 59 37 65 0
-28 -20 -61 -62 59 -37 -65 0
-28 -20 -61 -62 -59 37 65 0
-28 -20 -61 -62 -59 -37 -65 0
-28 -20 61 62 60 38 -66 0
-28 -20 61 62 60 -38 -66 0
-28 -20 61 62 -60 38 -66 0
-28 -20 61 62 -60 -38 66 0
-28 -20 61 -62 60 38 -66 0
-28 -20 61 -62 60 -38 66 0
-28 -20 61 -62 -60 38 66 0
-28 -20 61 -62 -60 -38 66 0
-28 -20 -61 62 60 38 66 0
-28 -20 -61 62 60 -38 -66 0
-28 -20 -61 62 -60 38 66 0
-28 -20 -61 62 -60 -38 -66 0
-28 -20 -61 -62 60 38 66 0
-28 -20 -61 -62 60 -38 -66 0
-28 -20 -61 -62 -60 38 66 0
-28 -20 -61 -62 -60 -38 -66 0
-28 -21 61 62 57 39 -63 0
-28 -21 61 62 57 -39 -63 0
-28 -21 61 62 -57 39 -63 0
-28 -21 61 62 -57 -39 63 0
-28 -21 61 -62 57 39 -63 0
-28 -21 61 -62 57 -39 63 0
-28 -21 61 -62 -57 39 63 0
-28 -21 61 -62 -57 -39 63 0
-28 -21 -61 62 57 39 63 0
-28 -21 -61 62 57 -39 -63 0
-28 -21 -61 62 -57 39 63 0
-28 -21 -61 62 -57 -39 -63 0
-28 -21 -61 -62 57 39 63 0
-28 -21 -61 -62 57 -39 -63 0
-28 -21 -61 -62 -57 39 63 0
-28 -21 -61 -62 -57 -39 -63 0
-28 -21 61 62 58 40 -64 0
-28 -21 61 62 58 -40 -64 0
-28 -21 61 62 -58 40 -64 0
-28 -21 61 62 -58 -40 64 0
-28 -21 61 -62 58 40 -64 0
-28 -21 61 -62 58 -40 64 0
-28 -21 61 -62 -58 40 64 0
-28 -21 61 -62 -58 -40 64 0
-28 -21 -61 62 58 40 64 0
-28 -21 -61 62 58 -40 -64 0
-28 -21 -61 62 -58 40 64 0
-28 -21 -61 62 -58 -40 -64 0
-28 -21 -61 -62 58 40 64 0
-28 -21 -61 -62 58 -40 -64 0
-28 -21 -61 -62 -58 40 64 0
-28 -21 -61 -62 -58 -40 -64 0
-28 -21 61 62 59 41 -65 0
-28 -21 61 62 59 -41 -65 0
-28 -21 61 62 -59 41 -65 0
-28 -21 61 62 -59 -41 65 0
-28 -21 61 -62 59 41 -65 0
-28 -21 61 -62 59 -41 65 0
-28 -21 61 -62 -59 41 65 0
-28 -21 61 -62 -59 -41 65 0
-28 -21 -61 62 59 41 65 0
-28 -21 -61 62 59 -41 -65 0
-28 -21 -61 62 -59 41 65 0
-28 -21 -61 62 -59 -41 -65 0
-28 -21 -61 -62 59 41 65 0
-28 -21 -61 -62 59 -41 -65 0
-28 -21 -61 -62 -59 41 65 0
-28 -21 -61 -62 -59 -41 -65 0
-28 -21 61 62 60 42 -66 0
-28 -21 61 62 60 -42 -66 0
-28 -21 61 62 -60 42 -66 0
-28 -21 61 62 -60 -42 66 0
-28 -21 61 -62 60 42 -66 0
-28 -21 61 -62 60 -42 66 0
-28 -21 61 -62 -60 42 66 0
-28 -21 61 -62 -60 -42 66 0
-28 -21 -61 62 60 42 66 0
-28 -21 -61 62 60 -42 -66 0
-28 -21 -61 62 -60 42 66 0
-28 -21 -61 62 -60 -42 -66 0
-28 -21 -61 -62 60 42 66 0
-28 -21 -61 -62 60 -42 -66 0
-28 -21 -61 -62 -60 42 66 0
-28 -21 -61 -62 -60 -42 -66 0
-28 -22 61 62 57 45 -63 0
-28 -22 61 62 57 -45 -63 0
-28 -22 61 62 -57 45 -63 0
-28 -22 61 62 -57 -45 63 0
-28 -22 61 -62 57 45 -63 0
-28 -22 61 -62 57 -45 63 0
-28 -22 61 -62 -57 45 63 0
-28 -22 61 -62 -57 -45 63 0
-28 -22 -61 62 57 45 63 0
-28 -22 -61 62 57 -45 -63 0
-28 -22 -61 62 -57 45 63 0
-28 -22 -61 62 -57 -45 -63 0
-28 -22 -61 -62 57 45 63 0
-28 -22 -61 -62 57 -45 -63 0
-28 -22 -61 -62 -57 45 63 0
-28 -22 -61 -62 -57 -45 -63 0
-28 -22 61 62 58 46 -64 0
-28 -22 61 62 58 -46 -64 0
-28 -22 61 62 -58 46 -64 0
-28 -22 61 62 -58 -46 64 0
-28 -22 61 -62 58 46 -64 0
-28 -22 61 -62 58 -46 64 0
-28 -22 61 -62 -58 46 64 0
-28 -22 61 -62 -58 -46 64 0
-28 -22 -61 62 58 46 64 0
-28 -22 -61 62 58 -46 -64 0
-28 -22 -61 62 -58 46 64 0
-28 -22 -61 62 -58 -46 -64 0
-28 -22 -61 -62 58 46 64 0
-28 -22 -61 -62 58 -46 -64 0
-28 -22 -61 -62 -58 46 64 0
-28 -22 -61 -62 -58 -46 -64 0
-28 -22 61 62 59 47 -65 0
-28 -22 61 62 59 -47 -65 0
-28 -22 61 62 -59 47 -65 0
-28 -22 61 62 -59 -47 65 0
-28 -22 61 -62 59 47 -65 0
-28 -22 61 -62 59 -47 65 0
-28 -22 61 -62 -59 47 65 0
-28 -22 61 -62 -59 -47 65 0
-28 -22 -61 62 59 47 65 0
-28 -22 -61 62 59 -47 -65 0
-28 -22 -61 62 -59 47 65 0
-28 -22 -61 62 -59 -47 -65 0
-28 -22 -61 -62 59 47 65 0
-28 -22 -61 -62 59 -47 -65 0
-28 -22 -61 -62 -59 47 65 0
-28 -22 -61 -62 -59 -47 -65 0
-28 -22 61 62 60 48 -66 0
-28 -22 61 62 60 -48 -66 0
-28 -22 61 62 -60 48 -66 0
-28 -22 61 62 -60 -48 66 0
-28 -22 61 -62 60 48 -66 0
-28 -22 61 -62 60 -48 66 0
-28 -22 61 -62 -60 48 66 0
-28 -22 61 -62 -60 -48 66 0
-28 -22 -61 62 60 48 66 0
-28 -22 -61 62 60 -48 -66 0
-28 -22 -61 62 -60 48 66 0
-28 -22 -61 62 -60 -48 -66 0
-28 -22 -61 -62 60 48 66 0
-28 -22 -61 -62 60 -48 -66 0
-28 -22 -61 -62 -60 48 66 0
-28 -22 -61 -62 -60 -48 -66 0
-28 -23 61 62 57 51 -63 0
-28 -23 61 62 57 -51 -63 0
-28 -23 61 62 -57 51 -63 0
-28 -23 61 62 -57 -51 63 0
-28 -23 61 -62 57 51 -63 0
-28 -23 61 -62 57 -51 63 0
-28 -23 61 -62 -57 51 63 0
-28 -23 61 -62 -57 -51 63 0
-28 -23 -61 62 57 51 63 0
-28 -23 -61 62 57 -51 -63 0
-28 -23 -61 62 -57 51 63 0
-28 -23 -61 62 -57 -51 -63 0
-28 -23 -61 -62 57 51 63 0
-28 -23 -61 -62 57 -51 -63 0
-28 -23 -61 -62 -57 51 63 0
-28 -23 -61 -62 -57 -51 -63 0
-28 -23 61 62 58 52 -64 0
-28 -23 61 62 58 -52 -64 0
-28 -23 61 62 -58 52 -64 0
-28 -23 61 62 -58 -52 64 0
-28 -23 61 -62 58 52 -64 0
-28 -23 61 -62 58 -52 64 0
-28 -23 61 -62 -58 52 64 0
-28 -23 61 -62 -58 -52 64 0
-28 -23 -61 62 58 52 64 0
-28 -23 -61 62 58 -52 -64 0
-28 -23 -61 62 -58 52 64 0
-28 -23 -61 62 -58 -52 -64 0
-28 -23 -61 -62 58 52 64 0
-28 -23 -61 -62 58 -52 -64 0
-28 -23 -61 -62 -58 52 64 0
-28 -23 -61 -62 -58 -52 -64 0
-28 -23 61 62 59 53 -65 0
-28 -23 61 62 59 -53 -65 0
-28 -23 61 62 -59 53 -65 0
-28 -23 61 62 -59 -53 65 0
-28 -23 61 -62 59 53 -65 0
-28 -23 61 -62 59 -53 65 0
-28 -23 61 -62 -59 53 65 0
-28 -23 61 -62 -59 -53 65 0
-28 -23 -61 62 59 53 65 0
-28 -23 -61 62 59 -53 -65 0
-28 -23 -61 62 -59 53 65 0
-28 -23 -61 62 -59 -53 -65 0
-28 -23 -61 -62 59 53 65 0
-28 -23 -61 -62 59 -53 -65 0
-28 -23 -61 -62 -59 53 65 0
-28 -23 -61 -62 -59 -53 -65 0
-28 -23 61 62 60 54 -66 0
-28 -23 61 62 60 -54 -66 0
-28 -23 61 62 -60 54 -66 0
-28 -23 61 62 -60 -54 66 0
-28 -23 61 -62 60 54 -66 0
-28 -23 61 -62 60 -54 66 0
-28 -23 61 -62 -60 54 66 0
-28 -23 61 -62 -60 -54 66 0
-28 -23 -61 62 60 54 66 0
-28 -23 -61 62 60 -54 -66 0
-28 -23 -61 62 -60 54 66 0
-28 -23 -61 62 -60 -54 -66 0
-28 -23 -61 -62 60 54 66 0
-28 -23 -61 -62 60 -54 -66 0
-28 -23 -61 -62 -60 54 66 0
-28 -23 -61 -62 -60 -54 -66 0
c #### outputs match truth table
-30 -35 0
-29 -39 0
-31 -45 0
-32 -51 0
-33 -57 0
-34 -63 0
-30 36 0
-29 40 0
-31 46 0
-32 52 0
-33 58 0
-34 64 0
-30 37 0
-29 41 0
-31 47 0
-32 53 0
-33 59 0
-34 65 0
-30 -38 0
-29 -42 0
-31 -48 0
-32 -54 0
-33 -60 0
-34 -66 0
c #### target truth table
c #### {"in":0,"out":0}
c #### {"in":1,"out":1}
c #### {"in":2,"out":1}
c #### {"in":3,"out":0}
c #### variable names
c #### c_2_0_0 1
c #### c_2_1_0 2
c #### c_2_1_1 3
c #### c_2_0_1 4
c #### c_3_0_0 5
c #### c_3_1_0 6
c #### c_3_1_1 7
c #### c_3_1_2 8
c #### c_3_0_1 9
c #### c_3_0_2 10
c #### c_4_0_0 11
c #### c_4_1_0 12
c #### c_4_1_1 13
c #### c_4_1_2 14
c #### c_4_1_3 15
c #### c_4_0_1 16
c #### c_4_0_2 17
c #### c_4_0_3 18
c #### c_5_0_0 19
c #### c_5_1_0 20
c #### c_5_1_1 21
c #### c_5_1_2 22
c #### c_5_1_3 23
c #### c_5_1_4 24
c #### c_5_0_1 25
c #### c_5_0_2 26
c #### c_5_0_3 27
c #### c_5_0_4 28
c #### o_1_0 29
c #### o_0_0 30
c #### o_2_0 31
c #### o_3_0 32
c #### o_4_0 33
c #### o_5_0 34
c #### v_0_0 35
c #### v_0_1 36
c #### v_0_2 37
c #### v_0_3 38
c #### v_1_0 39
c #### v_1_1 40
c #### v_1_2 41
c #### v_1_3 42
c #### t_2_0 43
c #### t_2_1 44
c #### v_2_0 45
c #### v_2_1 46
c #### v_2_2 47
c #### v_2_3 48
c #### t_3_0 49
c #### t_3_1 50
c #### v_3_0 51
c #### v_3_1 52
c #### v_3_2 53
c #### v_3_3 54
c #### t_4_0 55
c #### t_4_1 56
c #### v_4_0 57
c #### v_4_1 58
c #### v_4_2 59
c #### v_4_3 60
c #### t_5_0 61
c #### t_5_1 62
c #### v_5_0 63
c #### v_5_1 64
c #### v_5_2 65
c #### v_5_3 66
